(set-logic QF_S)
(declare-fun var_0xINPUT_269547 () String)
(assert (and (= (len var_0xINPUT_269547) 0) (= (len var_0xINPUT_269547) 0) (not (= var_0xINPUT_269547 "Example:")) (not (= var_0xINPUT_269547 "ywUN4ZIDAC"))))
(check-sat var_0xINPUT_269547)